File : Instances/p27
Used 80s
13135

1 0 0 0 0 0 0 0 0 0 0 1 0 0 1 0 0 1 0 0 1 0 0 0 1 1 0 0 0 0 
20 11 20 14 20 11 0 24 14 17 24 20 20 20 11 14 14 17 25 11 14 11 25 0 24 20 0 24 24 24 25 25 20 25 20 20 24 24 11 14 0 14 24 0 24 14 11 20 11 14 25 0 14 11 20 20 17 11 11 14 0 24 20 11 11 11 24 0 24 24 20 20 11 0 24 20 24 20 0 24 20 0 20 17 0 17 17 0 20 25 17 24 0 11 0 24 14 11 25 20 20 0 17 25 0 25 0 11 14 14 14 14 17 11 11 25 24 24 24 24 11 14 25 20 20 11 25 24 11 25 0 11 24 25 14 14 0 25 20 17 0 20 20 14 14 25 25 11 0 24 
